37
1 0 33
2 0 6
2 1 13
3 0 10
3 1 48
3 2 48
4 0 49
4 1 48
4 2 48
4 3 50
5 0 52
5 1 19
5 2 31
5 3 39
5 4 48
6 0 38
6 1 37
6 2 12
6 3 49
6 4 2
6 5 44
7 0 42
7 1 33
7 2 25
7 3 7
7 4 49
7 5 34
7 6 9
8 0 40
8 1 20
8 2 27
8 3 26
8 4 13
8 5 4
8 6 6
8 7 42
9 0 19
9 1 39
9 2 19
9 3 27
9 4 27
9 5 26
9 6 10
9 7 2
9 8 13
10 0 26
10 1 45
10 2 24
10 3 36
10 4 34
10 5 53
10 6 21
10 7 52
10 8 40
10 9 16
11 0 29
11 1 3
11 2 38
11 3 22
11 4 21
11 5 8
11 6 35
11 7 33
11 8 18
11 9 3
11 10 3
12 0 21
12 1 21
12 2 52
12 3 20
12 4 34
12 5 48
12 6 24
12 7 27
12 8 33
12 9 3
12 10 37
12 11 22
13 0 33
13 1 5
13 2 28
13 3 16
13 4 44
13 5 38
13 6 19
13 7 37
13 8 3
13 9 44
13 10 10
13 11 46
13 12 22
14 0 31
14 1 33
14 2 39
14 3 43
14 4 31
14 5 53
14 6 5
14 7 49
14 8 40
14 9 40
14 10 33
14 11 18
14 12 46
14 13 49
15 0 27
15 1 33
15 2 2
15 3 41
15 4 3
15 5 28
15 6 38
15 7 10
15 8 1
15 9 1
15 10 37
15 11 40
15 12 17
15 13 19
15 14 27
16 0 50
16 1 28
16 2 30
16 3 48
16 4 7
16 5 12
16 6 12
16 7 30
16 8 42
16 9 53
16 10 5
16 11 7
16 12 23
16 13 50
16 14 13
16 15 5
17 0 10
17 1 31
17 2 32
17 3 16
17 4 44
17 5 50
17 6 5
17 7 53
17 8 48
17 9 53
17 10 42
17 11 44
17 12 7
17 13 35
17 14 44
17 15 50
17 16 9
18 0 7
18 1 44
18 2 21
18 3 34
18 4 19
18 5 14
18 6 20
18 7 45
18 8 45
18 9 48
18 10 42
18 11 25
18 12 43
18 13 17
18 14 38
18 15 23
18 16 50
18 17 4
19 0 10
19 1 33
19 2 50
19 3 53
19 4 30
19 5 2
19 6 24
19 7 46
19 8 36
19 9 34
19 10 24
19 11 12
19 12 5
19 13 5
19 14 50
19 15 8
19 16 19
19 17 52
19 18 27
20 0 19
20 1 15
20 2 12
20 3 14
20 4 40
20 5 17
20 6 49
20 7 5
20 8 30
20 9 33
20 10 36
20 11 13
20 12 21
20 13 28
20 14 14
20 15 37
20 16 49
20 17 25
20 18 53
20 19 46
21 0 18
21 1 26
21 2 25
21 3 32
21 4 17
21 5 47
21 6 14
21 7 22
21 8 20
21 9 38
21 10 39
21 11 25
21 12 51
21 13 10
21 14 26
21 15 51
21 16 25
21 17 5
21 18 19
21 19 27
21 20 1
22 0 47
22 1 38
22 2 1
22 3 45
22 4 53
22 5 5
22 6 2
22 7 31
22 8 28
22 9 13
22 10 25
22 11 35
22 12 21
22 13 43
22 14 26
22 15 42
22 16 36
22 17 22
22 18 27
22 19 5
22 20 27
22 21 12
23 0 49
23 1 23
23 2 51
23 3 33
23 4 2
23 5 3
23 6 35
23 7 41
23 8 1
23 9 27
23 10 12
23 11 51
23 12 6
23 13 19
23 14 32
23 15 30
23 16 19
23 17 24
23 18 41
23 19 3
23 20 33
23 21 25
23 22 50
24 0 36
24 1 24
24 2 10
24 3 32
24 4 21
24 5 12
24 6 34
24 7 14
24 8 18
24 9 46
24 10 49
24 11 47
24 12 50
24 13 25
24 14 41
24 15 9
24 16 25
24 17 10
24 18 38
24 19 18
24 20 22
24 21 53
24 22 32
24 23 51
25 0 13
25 1 5
25 2 43
25 3 45
25 4 27
25 5 13
25 6 29
25 7 24
25 8 47
25 9 9
25 10 41
25 11 3
25 12 3
25 13 52
25 14 49
25 15 20
25 16 24
25 17 51
25 18 16
25 19 4
25 20 2
25 21 24
25 22 48
25 23 38
25 24 52
26 0 34
26 1 53
26 2 18
26 3 26
26 4 16
26 5 38
26 6 44
26 7 32
26 8 53
26 9 33
26 10 21
26 11 20
26 12 8
26 13 36
26 14 24
26 15 48
26 16 4
26 17 24
26 18 51
26 19 9
26 20 49
26 21 19
26 22 28
26 23 19
26 24 52
26 25 4
27 0 44
27 1 32
27 2 44
27 3 38
27 4 45
27 5 51
27 6 24
27 7 15
27 8 9
27 9 3
27 10 8
27 11 20
27 12 23
27 13 51
27 14 37
27 15 21
27 16 29
27 17 2
27 18 31
27 19 32
27 20 3
27 21 44
27 22 40
27 23 36
27 24 19
27 25 19
27 26 24
28 0 41
28 1 6
28 2 10
28 3 10
28 4 14
28 5 7
28 6 22
28 7 28
28 8 22
28 9 45
28 10 7
28 11 31
28 12 2
28 13 52
28 14 11
28 15 29
28 16 29
28 17 50
28 18 24
28 19 53
28 20 7
28 21 8
28 22 20
28 23 25
28 24 49
28 25 20
28 26 12
28 27 18
29 0 20
29 1 35
29 2 49
29 3 31
29 4 19
29 5 33
29 6 14
29 7 43
29 8 16
29 9 48
29 10 9
29 11 47
29 12 50
29 13 14
29 14 8
29 15 12
29 16 5
29 17 31
29 18 12
29 19 43
29 20 29
29 21 43
29 22 45
29 23 17
29 24 11
29 25 21
29 26 35
29 27 52
29 28 51
30 0 50
30 1 2
30 2 50
30 3 44
30 4 8
30 5 46
30 6 16
30 7 23
30 8 4
30 9 3
30 10 18
30 11 52
30 12 32
30 13 25
30 14 10
30 15 52
30 16 12
30 17 27
30 18 13
30 19 35
30 20 43
30 21 26
30 22 1
30 23 42
30 24 10
30 25 27
30 26 6
30 27 16
30 28 3
30 29 28
31 0 43
31 1 37
31 2 5
31 3 29
31 4 2
31 5 30
31 6 16
31 7 37
31 8 4
31 9 30
31 10 21
31 11 3
31 12 53
31 13 19
31 14 26
31 15 36
31 16 49
31 17 43
31 18 47
31 19 26
31 20 31
31 21 5
31 22 50
31 23 20
31 24 18
31 25 46
31 26 19
31 27 16
31 28 13
31 29 15
31 30 50
32 0 41
32 1 33
32 2 36
32 3 23
32 4 14
32 5 49
32 6 17
32 7 17
32 8 19
32 9 8
32 10 15
32 11 45
32 12 35
32 13 8
32 14 33
32 15 2
32 16 43
32 17 17
32 18 12
32 19 44
32 20 53
32 21 36
32 22 51
32 23 6
32 24 10
32 25 25
32 26 15
32 27 8
32 28 23
32 29 22
32 30 8
32 31 20
33 0 21
33 1 26
33 2 50
33 3 7
33 4 40
33 5 1
33 6 47
33 7 20
33 8 11
33 9 4
33 10 4
33 11 20
33 12 10
33 13 38
33 14 53
33 15 22
33 16 26
33 17 33
33 18 23
33 19 26
33 20 30
33 21 46
33 22 42
33 23 39
33 24 52
33 25 6
33 26 25
33 27 16
33 28 25
33 29 32
33 30 47
33 31 25
33 32 19
34 0 16
34 1 46
34 2 23
34 3 36
34 4 20
34 5 4
34 6 9
34 7 43
34 8 51
34 9 15
34 10 8
34 11 34
34 12 29
34 13 38
34 14 47
34 15 43
34 16 35
34 17 52
34 18 26
34 19 9
34 20 39
34 21 5
34 22 44
34 23 32
34 24 12
34 25 36
34 26 49
34 27 7
34 28 20
34 29 21
34 30 35
34 31 34
34 32 4
34 33 7
35 0 53
35 1 31
35 2 2
35 3 30
35 4 12
35 5 49
35 6 2
35 7 1
35 8 42
35 9 38
35 10 43
35 11 45
35 12 6
35 13 16
35 14 4
35 15 35
35 16 9
35 17 8
35 18 32
35 19 12
35 20 29
35 21 24
35 22 31
35 23 45
35 24 44
35 25 15
35 26 21
35 27 21
35 28 53
35 29 53
35 30 26
35 31 31
35 32 20
35 33 47
35 34 23
36 0 44
36 1 19
36 2 21
36 3 50
36 4 3
36 5 49
36 6 35
36 7 26
36 8 14
36 9 37
36 10 40
36 11 46
36 12 20
36 13 45
36 14 10
36 15 48
36 16 15
36 17 26
36 18 26
36 19 5
36 20 28
36 21 1
36 22 42
36 23 40
36 24 20
36 25 37
36 26 53
36 27 11
36 28 10
36 29 18
36 30 36
36 31 44
36 32 4
36 33 5
36 34 1
36 35 12
